15
2 0 1
3 0 1
4 0 1
4 1 1
5 2 1
5 4 1
6 1 1
6 4 1
7 0 1
7 5 1
8 0 1
8 2 1
8 6 1
9 1 1
9 2 1
9 6 1
9 8 1
10 4 1
10 5 1
10 6 1
10 8 1
10 9 1
11 0 1
11 1 1
11 2 1
11 3 1
11 4 1
11 5 1
11 7 1
11 8 1
12 0 1
12 3 1
12 6 1
12 8 1
12 9 1
13 0 1
13 3 1
13 4 1
13 7 1
13 8 1
13 9 1
13 12 1
14 1 1
14 2 1
14 4 1
14 5 1
14 9 1
14 11 1
